3538.67
70 70 25 95 70 77 16 16 6 77 77 77 70 25 25 77 16 25 70 96 16 70 70 16 70 70 77 70 70 16 70 70 77 30 70 77 95 16 70 16 70 6 77 25 16 89 77 77 70 29 16 70 70 25 95 16 77 70 25 16 70 25 77 21 16 77 77 70 70 16 70 77 70 70 70 25 70 16 70 6 70 70 77 16 70 25 70 70 70 30 16 25 70 25 77 16 16 16 77 70 
